10
56 200 3
0 310 3
0 1500 3
0 1500 3
0 1540 3
0 1500 3
0 1510 3
0 1500 3
0 1560 3
0 200 3
0 5 45 6 7 47 8 9 49 10 11
5 0 46 5 6 48 7 8 50 9 10
43 46 0 44 45 4 42 47 5 48 49
6 5 43 0 5 46 6 7 48 8 9
7 6 44 5 0 47 7 8 49 9 10
47 48 4 46 47 0 44 49 5 50 51
8 7 42 6 7 44 0 8 46 9 11
9 8 47 7 8 49 8 0 51 10 12
49 50 5 48 49 5 46 51 0 52 53
10 9 48 8 9 50 9 10 52 0 11
11 10 49 9 10 51 11 12 53 11 0
